; benchmark generated from python API
(set-info :status unknown)
(declare-datatypes ((IntState 0)) (((Mk1 (val1 Int)) (Mk2 (val2 Int)))))
 (declare-fun c_main_~i~6 () Int)
(declare-fun c_main_~j~6 () Int)
(declare-fun c_main_~k~6 () Int)
(assert
 (let (($x118 (<= c_main_~j~6 (+ (* 2 c_main_~i~6) 1))))
 (let (($x48 (<= c_main_~j~6 (+ (* 2 c_main_~i~6) 2))))
 (let (($x62 (<= c_main_~i~6 3)))
 (let (($x110 (exists ((v_nnf_44_st IntState) (val!101 Int) )(let ((?x56 (val2 v_nnf_44_st)))
 (let (($x15 (<= ?x56 3)))
 (let (($x126 (and (<= (+ ?x56 1) c_main_~k~6) (<= c_main_~j~6 (+ (* 2 ?x56) 2)) $x15)))
 (let (($x52 (not (= v_nnf_44_st (Mk1 val!101)))))
 (and $x52 $x126))))))
 ))
 (let (($x99 (<= c_main_~i~6 2)))
 (let ((?x51 (* 2 c_main_~i~6)))
 (let (($x165 (<= c_main_~j~6 ?x51)))
 (let (($x26 (exists ((v_nnf_44 Int) )(let (($x43 (<= v_nnf_44 3)))
 (and (<= (+ v_nnf_44 1) c_main_~k~6) (<= c_main_~j~6 (+ (* 2 v_nnf_44) 2)) $x43)))
 ))
 (and (and $x99 $x26 $x165 $x62 $x48 $x118) (not (and $x99 $x110 $x62 $x48 $x118))))))))))))
(check-sat)
